single_objective/SL-DABL/OP/problems/op/OPLib-master/solutions/ea4op/gen1/u724-gen1-50.sol
NAME : u724
TYPE : OP
DIMENSION : 724
COST_LIMIT : 20955
ROUTE_NODES : 429
ROUTE_SCORE : 429
ROUTE_COST : 20930
NODE_SEQUENCE_SECTION
1
724
715
2
11
721
697
21
25
24
93
688
689
47
30
96
687
103
89
88
102
87
98
20
19
16
10
9
710
705
714
706
716
717
7
8
709
701
700
17
100
101
110
114
113
76
75
77
74
111
115
64
116
71
106
72
73
53
54
55
57
58
56
62
61
105
60
52
112
109
66
50
108
78
107
117
652
647
648
640
639
641
120
121
151
150
136
147
149
168
123
124
169
170
125
167
126
172
146
603
130
129
284
283
280
281
282
277
273
275
271
268
267
193
260
261
264
263
525
262
522
210
252
511
249
253
250
251
248
515
526
527
198
197
195
266
269
524
523
520
517
516
225
226
224
216
350
351
340
499
496
493
494
500
498
345
510
214
213
509
508
353
354
503
502
504
501
302
289
288
285
287
290
286
291
292
404
365
424
423
422
421
425
426
427
428
429
430
431
432
433
435
434
436
437
438
439
440
441
442
443
444
445
446
447
448
449
450
452
451
453
411
412
457
460
463
465
464
419
418
467
455
456
454
470
369
370
371
372
368
373
367
374
366
375
376
377
378
379
380
381
382
383
384
388
387
389
386
391
390
392
393
394
400
407
398
312
313
311
314
361
363
403
475
362
316
358
489
360
335
339
338
348
324
325
323
337
336
333
329
322
230
231
326
327
334
328
320
321
232
330
233
234
240
235
239
242
206
237
238
241
243
227
217
218
219
245
246
205
236
201
199
541
540
528
531
537
539
532
533
535
536
549
546
564
554
553
185
186
187
551
575
559
592
595
597
591
600
598
593
175
184
180
181
183
178
176
174
177
145
144
173
142
166
165
154
160
609
157
162
140
139
606
608
607
138
141
152
638
619
637
621
635
634
629
626
667
679
666
664
663
660
624
625
627
658
657
661
665
654
662
622
623
617
630
610
620
632
156
164
155
631
611
613
655
612
628
659
656
675
678
682
671
80
41
49
42
685
81
48
40
92
91
27
99
18
14
12
13
-1
DEPOT_SECTION
1
-1
EOF
